Rodando pra 1h

Optimize a model with 490087 rows, 734022 columns and 18079519 nonzeros
Coefficient statistics:
  Matrix range    [1e+00, 1e+04]
  Objective range [5e-01, 5e-01]
  Bounds range    [1e+00, 1e+04]
  RHS range       [1e+00, 1e+04]
Presolve removed 2 rows and 2 columns (presolve time = 6s) ...
Presolve removed 3 rows and 3 columns (presolve time = 16s) ...
Presolve removed 6 rows and 6 columns (presolve time = 22s) ...
Presolve removed 6 rows and 6 columns (presolve time = 29s) ...
Presolve removed 6 rows and 6 columns (presolve time = 30s) ...
Presolve removed 6 rows and 6 columns (presolve time = 35s) ...
Presolve removed 6 rows and 6 columns (presolve time = 41s) ...
Presolve removed 6 rows and 6 columns (presolve time = 47s) ...
Presolve removed 6 rows and 6 columns (presolve time = 51s) ...
Presolve removed 6 rows and 6 columns (presolve time = 57s) ...
Presolve removed 6 rows and 6 columns (presolve time = 61s) ...
Presolve removed 6 rows and 6 columns (presolve time = 67s) ...
Presolve removed 6 rows and 6 columns (presolve time = 71s) ...
Presolve removed 6 rows and 6 columns (presolve time = 77s) ...
Presolve removed 6 rows and 6 columns (presolve time = 81s) ...
Presolve removed 6 rows and 6 columns (presolve time = 87s) ...
Presolve removed 6 rows and 6 columns (presolve time = 91s) ...
Presolve removed 6 rows and 6 columns (presolve time = 97s) ...
Presolve removed 6 rows and 6 columns (presolve time = 101s) ...
Presolve removed 6 rows and 6 columns (presolve time = 107s) ...
Presolve removed 6 rows and 6 columns (presolve time = 111s) ...
Presolve removed 6 rows and 6 columns (presolve time = 117s) ...
Presolve removed 6 rows and 6 columns (presolve time = 121s) ...
Presolve removed 6 rows and 6 columns (presolve time = 130s) ...
Presolve removed 6 rows and 6 columns (presolve time = 133s) ...
Presolve removed 6 rows and 6 columns (presolve time = 148s) ...
Presolve removed 6 rows and 6 columns
Presolve time: 148.38s
Presolved: 490081 rows, 734016 columns, 18079483 nonzeros
Variable types: 489300 continuous, 244716 integer (244714 binary)
Optimize a model with 490081 rows, 734016 columns and 18079483 nonzeros
Coefficient statistics:
  Matrix range    [1e+00, 1e+04]
  Objective range [5e-01, 5e-01]
  Bounds range    [1e+00, 1e+04]
  RHS range       [1e+00, 2e+04]
Presolve removed 0 rows and 0 columns (presolve time = 5s) ...
Presolved: 490081 rows, 734016 columns, 18079483 nonzeros


Root simplex log...

Iteration    Objective       Primal Inf.    Dual Inf.      Time
       0    0.0000000e+00   2.110683e+03   0.000000e+00    183s
    1456    0.0000000e+00   0.000000e+00   0.000000e+00    184s

Root relaxation: objective 0.000000e+00, 1456 iterations, 10.01 seconds

    Nodes    |    Current Node    |     Objective Bounds      |     Work
 Expl Unexpl |  Obj  Depth IntInf | Incumbent    BestBd   Gap | It/Node Time

     0     0    0.00000    0  719          -    0.00000      -     - 3606s

Explored 0 nodes (171875 simplex iterations) in 3606.68 seconds
Thread count was 1 (of 4 available processors)

Time limit reached
Best objective -, best bound 0.000000000000e+00, gap -
Tempo: 3596.75 segundos

Error code = 10004
Var::get
